; benchmark generated from python API
(set-info :status unknown)
(declare-fun cell_1_8 () Int)
(declare-fun cell_1_9 () Int)
(declare-fun cell_2_2 () Int)
(declare-fun cell_2_5 () Int)
(declare-fun cell_3_1 () Int)
(declare-fun cell_3_4 () Int)
(declare-fun cell_4_2 () Int)
(declare-fun cell_4_9 () Int)
(declare-fun cell_5_1 () Int)
(declare-fun cell_6_6 () Int)
(declare-fun cell_7_7 () Int)
(declare-fun cell_8_5 () Int)
(declare-fun cell_9_3 () Int)
(declare-fun cell_1_1 () Int)
(declare-fun cell_2_1 () Int)
(declare-fun cell_4_1 () Int)
(declare-fun cell_6_1 () Int)
(declare-fun cell_7_1 () Int)
(declare-fun cell_8_1 () Int)
(declare-fun cell_9_1 () Int)
(declare-fun cell_1_2 () Int)
(declare-fun cell_3_2 () Int)
(declare-fun cell_5_2 () Int)
(declare-fun cell_6_2 () Int)
(declare-fun cell_7_2 () Int)
(declare-fun cell_8_2 () Int)
(declare-fun cell_9_2 () Int)
(declare-fun cell_1_3 () Int)
(declare-fun cell_2_3 () Int)
(declare-fun cell_3_3 () Int)
(declare-fun cell_4_3 () Int)
(declare-fun cell_5_3 () Int)
(declare-fun cell_6_3 () Int)
(declare-fun cell_7_3 () Int)
(declare-fun cell_8_3 () Int)
(declare-fun cell_1_4 () Int)
(declare-fun cell_2_4 () Int)
(declare-fun cell_4_4 () Int)
(declare-fun cell_5_4 () Int)
(declare-fun cell_6_4 () Int)
(declare-fun cell_7_4 () Int)
(declare-fun cell_8_4 () Int)
(declare-fun cell_9_4 () Int)
(declare-fun cell_1_5 () Int)
(declare-fun cell_3_5 () Int)
(declare-fun cell_4_5 () Int)
(declare-fun cell_5_5 () Int)
(declare-fun cell_6_5 () Int)
(declare-fun cell_7_5 () Int)
(declare-fun cell_9_5 () Int)
(declare-fun cell_1_6 () Int)
(declare-fun cell_2_6 () Int)
(declare-fun cell_3_6 () Int)
(declare-fun cell_4_6 () Int)
(declare-fun cell_5_6 () Int)
(declare-fun cell_7_6 () Int)
(declare-fun cell_8_6 () Int)
(declare-fun cell_9_6 () Int)
(declare-fun cell_1_7 () Int)
(declare-fun cell_2_7 () Int)
(declare-fun cell_3_7 () Int)
(declare-fun cell_4_7 () Int)
(declare-fun cell_5_7 () Int)
(declare-fun cell_6_7 () Int)
(declare-fun cell_8_7 () Int)
(declare-fun cell_9_7 () Int)
(declare-fun cell_2_8 () Int)
(declare-fun cell_3_8 () Int)
(declare-fun cell_4_8 () Int)
(declare-fun cell_5_8 () Int)
(declare-fun cell_6_8 () Int)
(declare-fun cell_7_8 () Int)
(declare-fun cell_8_8 () Int)
(declare-fun cell_9_8 () Int)
(declare-fun cell_2_9 () Int)
(declare-fun cell_3_9 () Int)
(declare-fun cell_5_9 () Int)
(declare-fun cell_6_9 () Int)
(declare-fun cell_7_9 () Int)
(declare-fun cell_8_9 () Int)
(declare-fun cell_9_9 () Int)
(assert
 (= cell_1_8 1))
(assert
 (= cell_1_9 2))
(assert
 (= cell_2_2 1))
(assert
 (= cell_2_5 2))
(assert
 (= cell_3_1 2))
(assert
 (= cell_3_4 1))
(assert
 (= cell_4_2 2))
(assert
 (= cell_4_9 1))
(assert
 (= cell_5_1 1))
(assert
 (= cell_6_6 1))
(assert
 (= cell_7_7 1))
(assert
 (= cell_8_5 1))
(assert
 (= cell_9_3 1))
(assert
 (let (($x3181 (= cell_1_1 9)))
 (let (($x926 (= cell_1_1 8)))
 (let (($x2803 (= cell_1_1 7)))
 (let (($x3453 (= cell_1_1 6)))
 (let (($x1120 (= cell_1_1 5)))
 (let (($x2692 (= cell_1_1 4)))
 (let (($x661 (= cell_1_1 3)))
 (let (($x804 (= cell_1_1 2)))
 (let (($x414 (= cell_1_1 1)))
 (or $x414 $x804 $x661 $x2692 $x1120 $x3453 $x2803 $x926 $x3181)))))))))))
(assert
 (let (($x686 (= cell_2_1 9)))
 (let (($x2032 (= cell_2_1 8)))
 (let (($x3123 (= cell_2_1 7)))
 (let (($x1645 (= cell_2_1 6)))
 (let (($x3039 (= cell_2_1 5)))
 (let (($x1688 (= cell_2_1 4)))
 (let (($x9 (= cell_2_1 3)))
 (let (($x2434 (= cell_2_1 2)))
 (let (($x3019 (= cell_2_1 1)))
 (or $x3019 $x2434 $x9 $x1688 $x3039 $x1645 $x3123 $x2032 $x686)))))))))))
(assert
 (let (($x3332 (= cell_3_1 2)))
 (or (= cell_3_1 1) $x3332 (= cell_3_1 3) (= cell_3_1 4) (= cell_3_1 5) (= cell_3_1 6) (= cell_3_1 7) (= cell_3_1 8) (= cell_3_1 9))))
(assert
 (let (($x1238 (= cell_4_1 9)))
 (let (($x1835 (= cell_4_1 8)))
 (let (($x94 (= cell_4_1 7)))
 (let (($x3097 (= cell_4_1 6)))
 (let (($x592 (= cell_4_1 5)))
 (let (($x106 (= cell_4_1 4)))
 (let (($x2988 (= cell_4_1 3)))
 (let (($x2092 (= cell_4_1 2)))
 (let (($x2355 (= cell_4_1 1)))
 (or $x2355 $x2092 $x2988 $x106 $x592 $x3097 $x94 $x1835 $x1238)))))))))))
(assert
 (let (($x1993 (= cell_5_1 1)))
 (or $x1993 (= cell_5_1 2) (= cell_5_1 3) (= cell_5_1 4) (= cell_5_1 5) (= cell_5_1 6) (= cell_5_1 7) (= cell_5_1 8) (= cell_5_1 9))))
(assert
 (let (($x1727 (= cell_6_1 9)))
 (let (($x278 (= cell_6_1 8)))
 (let (($x734 (= cell_6_1 7)))
 (let (($x2024 (= cell_6_1 6)))
 (let (($x2593 (= cell_6_1 5)))
 (let (($x2732 (= cell_6_1 4)))
 (let (($x3405 (= cell_6_1 3)))
 (let (($x3234 (= cell_6_1 2)))
 (let (($x350 (= cell_6_1 1)))
 (or $x350 $x3234 $x3405 $x2732 $x2593 $x2024 $x734 $x278 $x1727)))))))))))
(assert
 (let (($x689 (= cell_7_1 9)))
 (let (($x3095 (= cell_7_1 8)))
 (let (($x2545 (= cell_7_1 7)))
 (let (($x3109 (= cell_7_1 6)))
 (let (($x3253 (= cell_7_1 5)))
 (let (($x1194 (= cell_7_1 4)))
 (let (($x3086 (= cell_7_1 3)))
 (let (($x2356 (= cell_7_1 2)))
 (let (($x1189 (= cell_7_1 1)))
 (or $x1189 $x2356 $x3086 $x1194 $x3253 $x3109 $x2545 $x3095 $x689)))))))))))
(assert
 (let (($x2103 (= cell_8_1 9)))
 (let (($x835 (= cell_8_1 8)))
 (let (($x2192 (= cell_8_1 7)))
 (let (($x4103 (= cell_8_1 6)))
 (let (($x389 (= cell_8_1 5)))
 (let (($x3054 (= cell_8_1 4)))
 (let (($x299 (= cell_8_1 3)))
 (let (($x2358 (= cell_8_1 2)))
 (let (($x2961 (= cell_8_1 1)))
 (or $x2961 $x2358 $x299 $x3054 $x389 $x4103 $x2192 $x835 $x2103)))))))))))
(assert
 (let (($x1772 (= cell_9_1 9)))
 (let (($x2765 (= cell_9_1 8)))
 (let (($x1399 (= cell_9_1 7)))
 (let (($x3088 (= cell_9_1 6)))
 (let (($x53 (= cell_9_1 5)))
 (let (($x320 (= cell_9_1 4)))
 (let (($x136 (= cell_9_1 3)))
 (let (($x465 (= cell_9_1 2)))
 (let (($x939 (= cell_9_1 1)))
 (or $x939 $x465 $x136 $x320 $x53 $x3088 $x1399 $x2765 $x1772)))))))))))
(assert
 (let (($x2599 (= cell_1_2 9)))
 (let (($x2268 (= cell_1_2 8)))
 (let (($x1048 (= cell_1_2 7)))
 (let (($x3049 (= cell_1_2 6)))
 (let (($x2353 (= cell_1_2 5)))
 (let (($x2396 (= cell_1_2 4)))
 (let (($x2307 (= cell_1_2 3)))
 (let (($x2723 (= cell_1_2 2)))
 (let (($x1077 (= cell_1_2 1)))
 (or $x1077 $x2723 $x2307 $x2396 $x2353 $x3049 $x1048 $x2268 $x2599)))))))))))
(assert
 (let (($x3193 (= cell_2_2 1)))
 (or $x3193 (= cell_2_2 2) (= cell_2_2 3) (= cell_2_2 4) (= cell_2_2 5) (= cell_2_2 6) (= cell_2_2 7) (= cell_2_2 8) (= cell_2_2 9))))
(assert
 (let (($x189 (= cell_3_2 9)))
 (let (($x2188 (= cell_3_2 8)))
 (let (($x2152 (= cell_3_2 7)))
 (let (($x1344 (= cell_3_2 6)))
 (let (($x3188 (= cell_3_2 5)))
 (let (($x3183 (= cell_3_2 4)))
 (let (($x1348 (= cell_3_2 3)))
 (let (($x3168 (= cell_3_2 2)))
 (let (($x956 (= cell_3_2 1)))
 (or $x956 $x3168 $x1348 $x3183 $x3188 $x1344 $x2152 $x2188 $x189)))))))))))
(assert
 (let (($x1883 (= cell_4_2 2)))
 (or (= cell_4_2 1) $x1883 (= cell_4_2 3) (= cell_4_2 4) (= cell_4_2 5) (= cell_4_2 6) (= cell_4_2 7) (= cell_4_2 8) (= cell_4_2 9))))
(assert
 (let (($x1794 (= cell_5_2 2)))
 (let (($x1609 (= cell_5_2 1)))
 (or $x1609 $x1794 (= cell_5_2 3) (= cell_5_2 4) (= cell_5_2 5) (= cell_5_2 6) (= cell_5_2 7) (= cell_5_2 8) (= cell_5_2 9)))))
(assert
 (let (($x728 (= cell_6_2 9)))
 (let (($x3169 (= cell_6_2 8)))
 (let (($x1725 (= cell_6_2 7)))
 (let (($x2922 (= cell_6_2 6)))
 (let (($x2234 (= cell_6_2 5)))
 (let (($x3376 (= cell_6_2 4)))
 (let (($x544 (= cell_6_2 3)))
 (let (($x749 (= cell_6_2 2)))
 (let (($x979 (= cell_6_2 1)))
 (or $x979 $x749 $x544 $x3376 $x2234 $x2922 $x1725 $x3169 $x728)))))))))))
(assert
 (let (($x1504 (= cell_7_2 9)))
 (let (($x1934 (= cell_7_2 8)))
 (let (($x3108 (= cell_7_2 7)))
 (let (($x2799 (= cell_7_2 6)))
 (let (($x1360 (= cell_7_2 5)))
 (let (($x2254 (= cell_7_2 4)))
 (let (($x154 (= cell_7_2 3)))
 (let (($x1869 (= cell_7_2 2)))
 (let (($x722 (= cell_7_2 1)))
 (or $x722 $x1869 $x154 $x2254 $x1360 $x2799 $x3108 $x1934 $x1504)))))))))))
(assert
 (let (($x1158 (= cell_8_2 9)))
 (let (($x1728 (= cell_8_2 8)))
 (let (($x1568 (= cell_8_2 7)))
 (let (($x1768 (= cell_8_2 6)))
 (let (($x2820 (= cell_8_2 5)))
 (let (($x1049 (= cell_8_2 4)))
 (let (($x163 (= cell_8_2 3)))
 (let (($x1090 (= cell_8_2 2)))
 (let (($x800 (= cell_8_2 1)))
 (or $x800 $x1090 $x163 $x1049 $x2820 $x1768 $x1568 $x1728 $x1158)))))))))))
(assert
 (let (($x1553 (= cell_9_2 9)))
 (let (($x2180 (= cell_9_2 8)))
 (let (($x3155 (= cell_9_2 7)))
 (let (($x138 (= cell_9_2 6)))
 (let (($x815 (= cell_9_2 5)))
 (let (($x3100 (= cell_9_2 4)))
 (let (($x1845 (= cell_9_2 3)))
 (let (($x2997 (= cell_9_2 2)))
 (let (($x198 (= cell_9_2 1)))
 (or $x198 $x2997 $x1845 $x3100 $x815 $x138 $x3155 $x2180 $x1553)))))))))))
(assert
 (let (($x642 (= cell_1_3 9)))
 (let (($x2139 (= cell_1_3 8)))
 (let (($x24 (= cell_1_3 7)))
 (let (($x2786 (= cell_1_3 6)))
 (let (($x783 (= cell_1_3 5)))
 (let (($x2189 (= cell_1_3 4)))
 (let (($x230 (= cell_1_3 3)))
 (let (($x2753 (= cell_1_3 2)))
 (let (($x2877 (= cell_1_3 1)))
 (or $x2877 $x2753 $x230 $x2189 $x783 $x2786 $x24 $x2139 $x642)))))))))))
(assert
 (let (($x781 (= cell_2_3 9)))
 (let (($x1328 (= cell_2_3 8)))
 (let (($x2831 (= cell_2_3 7)))
 (let (($x2579 (= cell_2_3 6)))
 (let (($x207 (= cell_2_3 5)))
 (let (($x2958 (= cell_2_3 4)))
 (let (($x2228 (= cell_2_3 3)))
 (let (($x1811 (= cell_2_3 2)))
 (let (($x1307 (= cell_2_3 1)))
 (or $x1307 $x1811 $x2228 $x2958 $x207 $x2579 $x2831 $x1328 $x781)))))))))))
(assert
 (let (($x1706 (= cell_3_3 9)))
 (let (($x2924 (= cell_3_3 8)))
 (let (($x2776 (= cell_3_3 7)))
 (let (($x555 (= cell_3_3 6)))
 (let (($x2649 (= cell_3_3 5)))
 (let (($x2897 (= cell_3_3 4)))
 (let (($x72 (= cell_3_3 3)))
 (let (($x255 (= cell_3_3 2)))
 (let (($x1711 (= cell_3_3 1)))
 (or $x1711 $x255 $x72 $x2897 $x2649 $x555 $x2776 $x2924 $x1706)))))))))))
(assert
 (let (($x372 (= cell_4_3 9)))
 (let (($x520 (= cell_4_3 8)))
 (let (($x3218 (= cell_4_3 7)))
 (let (($x650 (= cell_4_3 6)))
 (let (($x1171 (= cell_4_3 5)))
 (let (($x236 (= cell_4_3 4)))
 (let (($x1852 (= cell_4_3 3)))
 (let (($x1357 (= cell_4_3 2)))
 (let (($x976 (= cell_4_3 1)))
 (or $x976 $x1357 $x1852 $x236 $x1171 $x650 $x3218 $x520 $x372)))))))))))
(assert
 (let (($x3232 (= cell_5_3 9)))
 (let (($x1618 (= cell_5_3 8)))
 (let (($x2828 (= cell_5_3 7)))
 (let (($x2605 (= cell_5_3 6)))
 (let (($x2199 (= cell_5_3 5)))
 (let (($x613 (= cell_5_3 4)))
 (let (($x2641 (= cell_5_3 3)))
 (let (($x2874 (= cell_5_3 2)))
 (let (($x313 (= cell_5_3 1)))
 (or $x313 $x2874 $x2641 $x613 $x2199 $x2605 $x2828 $x1618 $x3232)))))))))))
(assert
 (let (($x2535 (= cell_6_3 9)))
 (let (($x2088 (= cell_6_3 8)))
 (let (($x291 (= cell_6_3 7)))
 (let (($x1972 (= cell_6_3 6)))
 (let (($x1946 (= cell_6_3 5)))
 (let (($x1791 (= cell_6_3 4)))
 (let (($x599 (= cell_6_3 3)))
 (let (($x959 (= cell_6_3 2)))
 (let (($x406 (= cell_6_3 1)))
 (or $x406 $x959 $x599 $x1791 $x1946 $x1972 $x291 $x2088 $x2535)))))))))))
(assert
 (let (($x1410 (= cell_7_3 9)))
 (let (($x690 (= cell_7_3 8)))
 (let (($x3172 (= cell_7_3 7)))
 (let (($x3305 (= cell_7_3 6)))
 (let (($x2859 (= cell_7_3 5)))
 (let (($x820 (= cell_7_3 4)))
 (let (($x831 (= cell_7_3 3)))
 (let (($x532 (= cell_7_3 2)))
 (let (($x1265 (= cell_7_3 1)))
 (or $x1265 $x532 $x831 $x820 $x2859 $x3305 $x3172 $x690 $x1410)))))))))))
(assert
 (let (($x2530 (= cell_8_3 9)))
 (let (($x2249 (= cell_8_3 8)))
 (let (($x2209 (= cell_8_3 7)))
 (let (($x1667 (= cell_8_3 6)))
 (let (($x2696 (= cell_8_3 5)))
 (let (($x2485 (= cell_8_3 4)))
 (let (($x1278 (= cell_8_3 3)))
 (let (($x1025 (= cell_8_3 2)))
 (let (($x1225 (= cell_8_3 1)))
 (or $x1225 $x1025 $x1278 $x2485 $x2696 $x1667 $x2209 $x2249 $x2530)))))))))))
(assert
 (let (($x858 (= cell_9_3 1)))
 (or $x858 (= cell_9_3 2) (= cell_9_3 3) (= cell_9_3 4) (= cell_9_3 5) (= cell_9_3 6) (= cell_9_3 7) (= cell_9_3 8) (= cell_9_3 9))))
(assert
 (let (($x2117 (= cell_1_4 9)))
 (let (($x1582 (= cell_1_4 8)))
 (let (($x2848 (= cell_1_4 7)))
 (let (($x356 (= cell_1_4 6)))
 (let (($x2151 (= cell_1_4 5)))
 (let (($x4306 (= cell_1_4 4)))
 (let (($x1501 (= cell_1_4 3)))
 (let (($x1436 (= cell_1_4 2)))
 (let (($x1034 (= cell_1_4 1)))
 (or $x1034 $x1436 $x1501 $x4306 $x2151 $x356 $x2848 $x1582 $x2117)))))))))))
(assert
 (let (($x1038 (= cell_2_4 9)))
 (let (($x81 (= cell_2_4 8)))
 (let (($x899 (= cell_2_4 7)))
 (let (($x1494 (= cell_2_4 6)))
 (let (($x324 (= cell_2_4 5)))
 (let (($x3092 (= cell_2_4 4)))
 (let (($x7527 (= cell_2_4 3)))
 (let (($x7600 (= cell_2_4 2)))
 (let (($x1231 (= cell_2_4 1)))
 (or $x1231 $x7600 $x7527 $x3092 $x324 $x1494 $x899 $x81 $x1038)))))))))))
(assert
 (let (($x2495 (= cell_3_4 1)))
 (or $x2495 (= cell_3_4 2) (= cell_3_4 3) (= cell_3_4 4) (= cell_3_4 5) (= cell_3_4 6) (= cell_3_4 7) (= cell_3_4 8) (= cell_3_4 9))))
(assert
 (let (($x2600 (= cell_4_4 9)))
 (let (($x1282 (= cell_4_4 8)))
 (let (($x1426 (= cell_4_4 7)))
 (let (($x2756 (= cell_4_4 6)))
 (let (($x1669 (= cell_4_4 5)))
 (let (($x2177 (= cell_4_4 4)))
 (let (($x1032 (= cell_4_4 3)))
 (let (($x3382 (= cell_4_4 2)))
 (let (($x1500 (= cell_4_4 1)))
 (or $x1500 $x3382 $x1032 $x2177 $x1669 $x2756 $x1426 $x1282 $x2600)))))))))))
(assert
 (let (($x1646 (= cell_5_4 9)))
 (let (($x1573 (= cell_5_4 8)))
 (let (($x2515 (= cell_5_4 7)))
 (let (($x1177 (= cell_5_4 6)))
 (let (($x675 (= cell_5_4 5)))
 (let (($x792 (= cell_5_4 4)))
 (let (($x1323 (= cell_5_4 3)))
 (let (($x2730 (= cell_5_4 2)))
 (let (($x3328 (= cell_5_4 1)))
 (or $x3328 $x2730 $x1323 $x792 $x675 $x1177 $x2515 $x1573 $x1646)))))))))))
(assert
 (let (($x2292 (= cell_6_4 9)))
 (let (($x2904 (= cell_6_4 8)))
 (let (($x3370 (= cell_6_4 7)))
 (let (($x2096 (= cell_6_4 6)))
 (let (($x2414 (= cell_6_4 5)))
 (let (($x2501 (= cell_6_4 4)))
 (let (($x93 (= cell_6_4 3)))
 (let (($x26 (= cell_6_4 2)))
 (let (($x2870 (= cell_6_4 1)))
 (or $x2870 $x26 $x93 $x2501 $x2414 $x2096 $x3370 $x2904 $x2292)))))))))))
(assert
 (let (($x426 (= cell_7_4 9)))
 (let (($x481 (= cell_7_4 8)))
 (let (($x4141 (= cell_7_4 7)))
 (let (($x1170 (= cell_7_4 6)))
 (let (($x59 (= cell_7_4 5)))
 (let (($x2053 (= cell_7_4 4)))
 (let (($x993 (= cell_7_4 3)))
 (let (($x2325 (= cell_7_4 2)))
 (let (($x240 (= cell_7_4 1)))
 (or $x240 $x2325 $x993 $x2053 $x59 $x1170 $x4141 $x481 $x426)))))))))))
(assert
 (let (($x2121 (= cell_8_4 9)))
 (let (($x2167 (= cell_8_4 8)))
 (let (($x2291 (= cell_8_4 7)))
 (let (($x47 (= cell_8_4 6)))
 (let (($x2611 (= cell_8_4 5)))
 (let (($x3090 (= cell_8_4 4)))
 (let (($x471 (= cell_8_4 3)))
 (let (($x1814 (= cell_8_4 2)))
 (let (($x748 (= cell_8_4 1)))
 (or $x748 $x1814 $x471 $x3090 $x2611 $x47 $x2291 $x2167 $x2121)))))))))))
(assert
 (let (($x296 (= cell_9_4 1)))
 (or $x296 (= cell_9_4 2) (= cell_9_4 3) (= cell_9_4 4) (= cell_9_4 5) (= cell_9_4 6) (= cell_9_4 7) (= cell_9_4 8) (= cell_9_4 9))))
(assert
 (let (($x2422 (= cell_1_5 9)))
 (let (($x3027 (= cell_1_5 8)))
 (let (($x798 (= cell_1_5 7)))
 (let (($x2689 (= cell_1_5 6)))
 (let (($x2116 (= cell_1_5 5)))
 (let (($x2138 (= cell_1_5 4)))
 (let (($x1353 (= cell_1_5 3)))
 (let (($x422 (= cell_1_5 2)))
 (let (($x2108 (= cell_1_5 1)))
 (or $x2108 $x422 $x1353 $x2138 $x2116 $x2689 $x798 $x3027 $x2422)))))))))))
(assert
 (let (($x735 (= cell_2_5 2)))
 (or (= cell_2_5 1) $x735 (= cell_2_5 3) (= cell_2_5 4) (= cell_2_5 5) (= cell_2_5 6) (= cell_2_5 7) (= cell_2_5 8) (= cell_2_5 9))))
(assert
 (let (($x7799 (= cell_3_5 9)))
 (let (($x2311 (= cell_3_5 8)))
 (let (($x2044 (= cell_3_5 7)))
 (let (($x991 (= cell_3_5 6)))
 (let (($x708 (= cell_3_5 5)))
 (let (($x862 (= cell_3_5 4)))
 (let (($x1952 (= cell_3_5 3)))
 (let (($x1747 (= cell_3_5 2)))
 (let (($x1562 (= cell_3_5 1)))
 (or $x1562 $x1747 $x1952 $x862 $x708 $x991 $x2044 $x2311 $x7799)))))))))))
(assert
 (let (($x1331 (= cell_4_5 9)))
 (let (($x1829 (= cell_4_5 8)))
 (let (($x981 (= cell_4_5 7)))
 (let (($x861 (= cell_4_5 6)))
 (let (($x52 (= cell_4_5 5)))
 (let (($x2298 (= cell_4_5 4)))
 (let (($x2802 (= cell_4_5 3)))
 (let (($x1994 (= cell_4_5 2)))
 (let (($x2868 (= cell_4_5 1)))
 (or $x2868 $x1994 $x2802 $x2298 $x52 $x861 $x981 $x1829 $x1331)))))))))))
(assert
 (let (($x2065 (= cell_5_5 9)))
 (let (($x3282 (= cell_5_5 8)))
 (let (($x1489 (= cell_5_5 7)))
 (let (($x3062 (= cell_5_5 6)))
 (let (($x2085 (= cell_5_5 5)))
 (let (($x3037 (= cell_5_5 4)))
 (let (($x750 (= cell_5_5 3)))
 (let (($x2118 (= cell_5_5 2)))
 (let (($x2259 (= cell_5_5 1)))
 (or $x2259 $x2118 $x750 $x3037 $x2085 $x3062 $x1489 $x3282 $x2065)))))))))))
(assert
 (let (($x1269 (= cell_6_5 9)))
 (let (($x2705 (= cell_6_5 8)))
 (let (($x2933 (= cell_6_5 7)))
 (let (($x216 (= cell_6_5 6)))
 (let (($x3298 (= cell_6_5 5)))
 (let (($x3274 (= cell_6_5 4)))
 (let (($x3252 (= cell_6_5 3)))
 (let (($x2785 (= cell_6_5 2)))
 (let (($x3177 (= cell_6_5 1)))
 (or $x3177 $x2785 $x3252 $x3274 $x3298 $x216 $x2933 $x2705 $x1269)))))))))))
(assert
 (let (($x842 (= cell_7_5 9)))
 (let (($x1218 (= cell_7_5 8)))
 (let (($x2147 (= cell_7_5 7)))
 (let (($x2718 (= cell_7_5 6)))
 (let (($x1154 (= cell_7_5 5)))
 (let (($x2944 (= cell_7_5 4)))
 (let (($x1253 (= cell_7_5 3)))
 (let (($x1135 (= cell_7_5 2)))
 (let (($x3077 (= cell_7_5 1)))
 (or $x3077 $x1135 $x1253 $x2944 $x1154 $x2718 $x2147 $x1218 $x842)))))))))))
(assert
 (let (($x1532 (= cell_8_5 1)))
 (or $x1532 (= cell_8_5 2) (= cell_8_5 3) (= cell_8_5 4) (= cell_8_5 5) (= cell_8_5 6) (= cell_8_5 7) (= cell_8_5 8) (= cell_8_5 9))))
(assert
 (let (($x696 (= cell_9_5 2)))
 (let (($x2488 (= cell_9_5 1)))
 (or $x2488 $x696 (= cell_9_5 3) (= cell_9_5 4) (= cell_9_5 5) (= cell_9_5 6) (= cell_9_5 7) (= cell_9_5 8) (= cell_9_5 9)))))
(assert
 (let (($x2735 (= cell_1_6 9)))
 (let (($x1926 (= cell_1_6 8)))
 (let (($x1924 (= cell_1_6 7)))
 (let (($x572 (= cell_1_6 6)))
 (let (($x2940 (= cell_1_6 5)))
 (let (($x997 (= cell_1_6 4)))
 (let (($x966 (= cell_1_6 3)))
 (let (($x1137 (= cell_1_6 2)))
 (let (($x1583 (= cell_1_6 1)))
 (or $x1583 $x1137 $x966 $x997 $x2940 $x572 $x1924 $x1926 $x2735)))))))))))
(assert
 (let (($x2250 (= cell_2_6 9)))
 (let (($x1715 (= cell_2_6 8)))
 (let (($x2481 (= cell_2_6 7)))
 (let (($x2083 (= cell_2_6 6)))
 (let (($x2039 (= cell_2_6 5)))
 (let (($x3223 (= cell_2_6 4)))
 (let (($x1234 (= cell_2_6 3)))
 (let (($x1233 (= cell_2_6 2)))
 (let (($x2153 (= cell_2_6 1)))
 (or $x2153 $x1233 $x1234 $x3223 $x2039 $x2083 $x2481 $x1715 $x2250)))))))))))
(assert
 (let (($x1435 (= cell_3_6 9)))
 (let (($x1740 (= cell_3_6 8)))
 (let (($x1879 (= cell_3_6 7)))
 (let (($x1824 (= cell_3_6 6)))
 (let (($x1460 (= cell_3_6 5)))
 (let (($x2957 (= cell_3_6 4)))
 (let (($x753 (= cell_3_6 3)))
 (let (($x2864 (= cell_3_6 2)))
 (let (($x3046 (= cell_3_6 1)))
 (or $x3046 $x2864 $x753 $x2957 $x1460 $x1824 $x1879 $x1740 $x1435)))))))))))
(assert
 (let (($x1295 (= cell_4_6 9)))
 (let (($x2477 (= cell_4_6 8)))
 (let (($x434 (= cell_4_6 7)))
 (let (($x2040 (= cell_4_6 6)))
 (let (($x1117 (= cell_4_6 5)))
 (let (($x944 (= cell_4_6 4)))
 (let (($x318 (= cell_4_6 3)))
 (let (($x1418 (= cell_4_6 2)))
 (let (($x2433 (= cell_4_6 1)))
 (or $x2433 $x1418 $x318 $x944 $x1117 $x2040 $x434 $x2477 $x1295)))))))))))
(assert
 (let (($x7878 (= cell_5_6 9)))
 (let (($x1901 (= cell_5_6 8)))
 (let (($x2272 (= cell_5_6 7)))
 (let (($x2038 (= cell_5_6 6)))
 (let (($x2938 (= cell_5_6 5)))
 (let (($x774 (= cell_5_6 4)))
 (let (($x2430 (= cell_5_6 3)))
 (let (($x2402 (= cell_5_6 2)))
 (let (($x2659 (= cell_5_6 1)))
 (or $x2659 $x2402 $x2430 $x774 $x2938 $x2038 $x2272 $x1901 $x7878)))))))))))
(assert
 (let (($x1750 (= cell_6_6 1)))
 (or $x1750 (= cell_6_6 2) (= cell_6_6 3) (= cell_6_6 4) (= cell_6_6 5) (= cell_6_6 6) (= cell_6_6 7) (= cell_6_6 8) (= cell_6_6 9))))
(assert
 (let (($x312 (= cell_7_6 9)))
 (let (($x2425 (= cell_7_6 8)))
 (let (($x3373 (= cell_7_6 7)))
 (let (($x2078 (= cell_7_6 6)))
 (let (($x6826 (= cell_7_6 5)))
 (let (($x2496 (= cell_7_6 4)))
 (let (($x1173 (= cell_7_6 3)))
 (let (($x1031 (= cell_7_6 2)))
 (let (($x1116 (= cell_7_6 1)))
 (or $x1116 $x1031 $x1173 $x2496 $x6826 $x2078 $x3373 $x2425 $x312)))))))))))
(assert
 (let (($x1419 (= cell_8_6 1)))
 (or $x1419 (= cell_8_6 2) (= cell_8_6 3) (= cell_8_6 4) (= cell_8_6 5) (= cell_8_6 6) (= cell_8_6 7) (= cell_8_6 8) (= cell_8_6 9))))
(assert
 (let (($x3041 (= cell_9_6 1)))
 (or $x3041 (= cell_9_6 2) (= cell_9_6 3) (= cell_9_6 4) (= cell_9_6 5) (= cell_9_6 6) (= cell_9_6 7) (= cell_9_6 8) (= cell_9_6 9))))
(assert
 (let (($x1766 (= cell_1_7 9)))
 (let (($x1491 (= cell_1_7 8)))
 (let (($x1569 (= cell_1_7 7)))
 (let (($x1191 (= cell_1_7 6)))
 (let (($x3219 (= cell_1_7 5)))
 (let (($x3098 (= cell_1_7 4)))
 (let (($x2184 (= cell_1_7 3)))
 (let (($x2198 (= cell_1_7 2)))
 (let (($x2070 (= cell_1_7 1)))
 (or $x2070 $x2198 $x2184 $x3098 $x3219 $x1191 $x1569 $x1491 $x1766)))))))))))
(assert
 (let (($x3216 (= cell_2_7 9)))
 (let (($x1337 (= cell_2_7 8)))
 (let (($x1196 (= cell_2_7 7)))
 (let (($x2913 (= cell_2_7 6)))
 (let (($x1681 (= cell_2_7 5)))
 (let (($x3153 (= cell_2_7 4)))
 (let (($x3187 (= cell_2_7 3)))
 (let (($x3381 (= cell_2_7 2)))
 (let (($x1320 (= cell_2_7 1)))
 (or $x1320 $x3381 $x3187 $x3153 $x1681 $x2913 $x1196 $x1337 $x3216)))))))))))
(assert
 (let (($x3379 (= cell_3_7 9)))
 (let (($x66 (= cell_3_7 8)))
 (let (($x2691 (= cell_3_7 7)))
 (let (($x3237 (= cell_3_7 6)))
 (let (($x3231 (= cell_3_7 5)))
 (let (($x2185 (= cell_3_7 4)))
 (let (($x3067 (= cell_3_7 3)))
 (let (($x1351 (= cell_3_7 2)))
 (let (($x898 (= cell_3_7 1)))
 (or $x898 $x1351 $x3067 $x2185 $x3231 $x3237 $x2691 $x66 $x3379)))))))))))
(assert
 (let (($x1918 (= cell_4_7 9)))
 (let (($x3073 (= cell_4_7 8)))
 (let (($x180 (= cell_4_7 7)))
 (let (($x359 (= cell_4_7 6)))
 (let (($x671 (= cell_4_7 5)))
 (let (($x1536 (= cell_4_7 4)))
 (let (($x484 (= cell_4_7 3)))
 (let (($x955 (= cell_4_7 2)))
 (let (($x1816 (= cell_4_7 1)))
 (or $x1816 $x955 $x484 $x1536 $x671 $x359 $x180 $x3073 $x1918)))))))))))
(assert
 (let (($x2122 (= cell_5_7 9)))
 (let (($x3314 (= cell_5_7 8)))
 (let (($x229 (= cell_5_7 7)))
 (let (($x2436 (= cell_5_7 6)))
 (let (($x2640 (= cell_5_7 5)))
 (let (($x1885 (= cell_5_7 4)))
 (let (($x1134 (= cell_5_7 3)))
 (let (($x1526 (= cell_5_7 2)))
 (let (($x2643 (= cell_5_7 1)))
 (or $x2643 $x1526 $x1134 $x1885 $x2640 $x2436 $x229 $x3314 $x2122)))))))))))
(assert
 (let (($x942 (= cell_6_7 9)))
 (let (($x597 (= cell_6_7 8)))
 (let (($x621 (= cell_6_7 7)))
 (let (($x2247 (= cell_6_7 6)))
 (let (($x2498 (= cell_6_7 5)))
 (let (($x1356 (= cell_6_7 4)))
 (let (($x3014 (= cell_6_7 3)))
 (let (($x778 (= cell_6_7 2)))
 (let (($x2480 (= cell_6_7 1)))
 (or $x2480 $x778 $x3014 $x1356 $x2498 $x2247 $x621 $x597 $x942)))))))))))
(assert
 (let (($x409 (= cell_7_7 1)))
 (or $x409 (= cell_7_7 2) (= cell_7_7 3) (= cell_7_7 4) (= cell_7_7 5) (= cell_7_7 6) (= cell_7_7 7) (= cell_7_7 8) (= cell_7_7 9))))
(assert
 (let (($x3074 (= cell_8_7 1)))
 (or $x3074 (= cell_8_7 2) (= cell_8_7 3) (= cell_8_7 4) (= cell_8_7 5) (= cell_8_7 6) (= cell_8_7 7) (= cell_8_7 8) (= cell_8_7 9))))
(assert
 (let (($x407 (= cell_9_7 1)))
 (or $x407 (= cell_9_7 2) (= cell_9_7 3) (= cell_9_7 4) (= cell_9_7 5) (= cell_9_7 6) (= cell_9_7 7) (= cell_9_7 8) (= cell_9_7 9))))
(assert
 (let (($x929 (= cell_1_8 1)))
 (or $x929 (= cell_1_8 2) (= cell_1_8 3) (= cell_1_8 4) (= cell_1_8 5) (= cell_1_8 6) (= cell_1_8 7) (= cell_1_8 8) (= cell_1_8 9))))
(assert
 (let (($x1694 (= cell_2_8 2)))
 (let (($x2439 (= cell_2_8 1)))
 (or $x2439 $x1694 (= cell_2_8 3) (= cell_2_8 4) (= cell_2_8 5) (= cell_2_8 6) (= cell_2_8 7) (= cell_2_8 8) (= cell_2_8 9)))))
(assert
 (let (($x2338 (= cell_3_8 2)))
 (let (($x2884 (= cell_3_8 1)))
 (or $x2884 $x2338 (= cell_3_8 3) (= cell_3_8 4) (= cell_3_8 5) (= cell_3_8 6) (= cell_3_8 7) (= cell_3_8 8) (= cell_3_8 9)))))
(assert
 (let (($x1708 (= cell_4_8 9)))
 (let (($x2507 (= cell_4_8 8)))
 (let (($x755 (= cell_4_8 7)))
 (let (($x1029 (= cell_4_8 6)))
 (let (($x925 (= cell_4_8 5)))
 (let (($x874 (= cell_4_8 4)))
 (let (($x160 (= cell_4_8 3)))
 (let (($x3307 (= cell_4_8 2)))
 (let (($x1520 (= cell_4_8 1)))
 (or $x1520 $x3307 $x160 $x874 $x925 $x1029 $x755 $x2507 $x1708)))))))))))
(assert
 (let (($x3154 (= cell_5_8 1)))
 (or $x3154 (= cell_5_8 2) (= cell_5_8 3) (= cell_5_8 4) (= cell_5_8 5) (= cell_5_8 6) (= cell_5_8 7) (= cell_5_8 8) (= cell_5_8 9))))
(assert
 (let (($x693 (= cell_6_8 9)))
 (let (($x1300 (= cell_6_8 8)))
 (let (($x165 (= cell_6_8 7)))
 (let (($x2106 (= cell_6_8 6)))
 (let (($x2176 (= cell_6_8 5)))
 (let (($x408 (= cell_6_8 4)))
 (let (($x3416 (= cell_6_8 3)))
 (let (($x3367 (= cell_6_8 2)))
 (let (($x793 (= cell_6_8 1)))
 (or $x793 $x3367 $x3416 $x408 $x2176 $x2106 $x165 $x1300 $x693)))))))))))
(assert
 (let (($x2810 (= cell_7_8 1)))
 (or $x2810 (= cell_7_8 2) (= cell_7_8 3) (= cell_7_8 4) (= cell_7_8 5) (= cell_7_8 6) (= cell_7_8 7) (= cell_7_8 8) (= cell_7_8 9))))
(assert
 (let (($x148 (= cell_8_8 1)))
 (or $x148 (= cell_8_8 2) (= cell_8_8 3) (= cell_8_8 4) (= cell_8_8 5) (= cell_8_8 6) (= cell_8_8 7) (= cell_8_8 8) (= cell_8_8 9))))
(assert
 (let (($x609 (= cell_9_8 1)))
 (or $x609 (= cell_9_8 2) (= cell_9_8 3) (= cell_9_8 4) (= cell_9_8 5) (= cell_9_8 6) (= cell_9_8 7) (= cell_9_8 8) (= cell_9_8 9))))
(assert
 (let (($x1123 (= cell_1_9 2)))
 (or (= cell_1_9 1) $x1123 (= cell_1_9 3) (= cell_1_9 4) (= cell_1_9 5) (= cell_1_9 6) (= cell_1_9 7) (= cell_1_9 8) (= cell_1_9 9))))
(assert
 (let (($x1275 (= cell_2_9 9)))
 (let (($x2994 (= cell_2_9 8)))
 (let (($x3213 (= cell_2_9 7)))
 (let (($x727 (= cell_2_9 6)))
 (let (($x2091 (= cell_2_9 5)))
 (let (($x476 (= cell_2_9 4)))
 (let (($x2771 (= cell_2_9 3)))
 (let (($x2383 (= cell_2_9 2)))
 (let (($x779 (= cell_2_9 1)))
 (or $x779 $x2383 $x2771 $x476 $x2091 $x727 $x3213 $x2994 $x1275)))))))))))
(assert
 (let (($x1470 (= cell_3_9 9)))
 (let (($x1473 (= cell_3_9 8)))
 (let (($x751 (= cell_3_9 7)))
 (let (($x1179 (= cell_3_9 6)))
 (let (($x1248 (= cell_3_9 5)))
 (let (($x2931 (= cell_3_9 4)))
 (let (($x3063 (= cell_3_9 3)))
 (let (($x786 (= cell_3_9 2)))
 (let (($x2403 (= cell_3_9 1)))
 (or $x2403 $x786 $x3063 $x2931 $x1248 $x1179 $x751 $x1473 $x1470)))))))))))
(assert
 (let (($x1474 (= cell_4_9 1)))
 (or $x1474 (= cell_4_9 2) (= cell_4_9 3) (= cell_4_9 4) (= cell_4_9 5) (= cell_4_9 6) (= cell_4_9 7) (= cell_4_9 8) (= cell_4_9 9))))
(assert
 (let (($x3380 (= cell_5_9 9)))
 (let (($x303 (= cell_5_9 8)))
 (let (($x192 (= cell_5_9 7)))
 (let (($x3147 (= cell_5_9 6)))
 (let (($x2890 (= cell_5_9 5)))
 (let (($x2520 (= cell_5_9 4)))
 (let (($x578 (= cell_5_9 3)))
 (let (($x590 (= cell_5_9 2)))
 (let (($x612 (= cell_5_9 1)))
 (or $x612 $x590 $x578 $x2520 $x2890 $x3147 $x192 $x303 $x3380)))))))))))
(assert
 (let (($x1027 (= cell_6_9 2)))
 (let (($x2161 (= cell_6_9 1)))
 (or $x2161 $x1027 (= cell_6_9 3) (= cell_6_9 4) (= cell_6_9 5) (= cell_6_9 6) (= cell_6_9 7) (= cell_6_9 8) (= cell_6_9 9)))))
(assert
 (let (($x2412 (= cell_7_9 2)))
 (let (($x14 (= cell_7_9 1)))
 (or $x14 $x2412 (= cell_7_9 3) (= cell_7_9 4) (= cell_7_9 5) (= cell_7_9 6) (= cell_7_9 7) (= cell_7_9 8) (= cell_7_9 9)))))
(assert
 (let (($x905 (= cell_8_9 2)))
 (let (($x1458 (= cell_8_9 1)))
 (or $x1458 $x905 (= cell_8_9 3) (= cell_8_9 4) (= cell_8_9 5) (= cell_8_9 6) (= cell_8_9 7) (= cell_8_9 8) (= cell_8_9 9)))))
(assert
 (let (($x770 (= cell_9_9 2)))
 (let (($x1349 (= cell_9_9 1)))
 (or $x1349 $x770 (= cell_9_9 3) (= cell_9_9 4) (= cell_9_9 5) (= cell_9_9 6) (= cell_9_9 7) (= cell_9_9 8) (= cell_9_9 9)))))
(assert
 (and (distinct cell_1_1 cell_1_2 cell_1_3 cell_1_4 cell_1_5 cell_1_6 cell_1_7 cell_1_8 cell_1_9) true))
(assert
 (and (distinct cell_2_1 cell_2_2 cell_2_3 cell_2_4 cell_2_5 cell_2_6 cell_2_7 cell_2_8 cell_2_9) true))
(assert
 (and (distinct cell_3_1 cell_3_2 cell_3_3 cell_3_4 cell_3_5 cell_3_6 cell_3_7 cell_3_8 cell_3_9) true))
(assert
 (and (distinct cell_4_1 cell_4_2 cell_4_3 cell_4_4 cell_4_5 cell_4_6 cell_4_7 cell_4_8 cell_4_9) true))
(assert
 (and (distinct cell_5_1 cell_5_2 cell_5_3 cell_5_4 cell_5_5 cell_5_6 cell_5_7 cell_5_8 cell_5_9) true))
(assert
 (and (distinct cell_6_1 cell_6_2 cell_6_3 cell_6_4 cell_6_5 cell_6_6 cell_6_7 cell_6_8 cell_6_9) true))
(assert
 (and (distinct cell_7_1 cell_7_2 cell_7_3 cell_7_4 cell_7_5 cell_7_6 cell_7_7 cell_7_8 cell_7_9) true))
(assert
 (and (distinct cell_8_1 cell_8_2 cell_8_3 cell_8_4 cell_8_5 cell_8_6 cell_8_7 cell_8_8 cell_8_9) true))
(assert
 (and (distinct cell_9_1 cell_9_2 cell_9_3 cell_9_4 cell_9_5 cell_9_6 cell_9_7 cell_9_8 cell_9_9) true))
(assert
 (and (distinct cell_1_1 cell_2_1 cell_3_1 cell_4_1 cell_5_1 cell_6_1 cell_7_1 cell_8_1 cell_9_1) true))
(assert
 (and (distinct cell_1_2 cell_2_2 cell_3_2 cell_4_2 cell_5_2 cell_6_2 cell_7_2 cell_8_2 cell_9_2) true))
(assert
 (and (distinct cell_1_3 cell_2_3 cell_3_3 cell_4_3 cell_5_3 cell_6_3 cell_7_3 cell_8_3 cell_9_3) true))
(assert
 (and (distinct cell_1_4 cell_2_4 cell_3_4 cell_4_4 cell_5_4 cell_6_4 cell_7_4 cell_8_4 cell_9_4) true))
(assert
 (and (distinct cell_1_5 cell_2_5 cell_3_5 cell_4_5 cell_5_5 cell_6_5 cell_7_5 cell_8_5 cell_9_5) true))
(assert
 (and (distinct cell_1_6 cell_2_6 cell_3_6 cell_4_6 cell_5_6 cell_6_6 cell_7_6 cell_8_6 cell_9_6) true))
(assert
 (and (distinct cell_1_7 cell_2_7 cell_3_7 cell_4_7 cell_5_7 cell_6_7 cell_7_7 cell_8_7 cell_9_7) true))
(assert
 (and (distinct cell_1_8 cell_2_8 cell_3_8 cell_4_8 cell_5_8 cell_6_8 cell_7_8 cell_8_8 cell_9_8) true))
(assert
 (and (distinct cell_1_9 cell_2_9 cell_3_9 cell_4_9 cell_5_9 cell_6_9 cell_7_9 cell_8_9 cell_9_9) true))
(assert
 (and (distinct cell_1_1 cell_1_2 cell_1_3 cell_2_1 cell_2_2 cell_2_3 cell_3_1 cell_3_2 cell_3_3) true))
(assert
 (and (distinct cell_1_4 cell_1_5 cell_1_6 cell_2_4 cell_2_5 cell_2_6 cell_3_4 cell_3_5 cell_3_6) true))
(assert
 (and (distinct cell_1_7 cell_1_8 cell_1_9 cell_2_7 cell_2_8 cell_2_9 cell_3_7 cell_3_8 cell_3_9) true))
(assert
 (and (distinct cell_4_1 cell_4_2 cell_4_3 cell_5_1 cell_5_2 cell_5_3 cell_6_1 cell_6_2 cell_6_3) true))
(assert
 (and (distinct cell_4_4 cell_4_5 cell_4_6 cell_5_4 cell_5_5 cell_5_6 cell_6_4 cell_6_5 cell_6_6) true))
(assert
 (and (distinct cell_4_7 cell_4_8 cell_4_9 cell_5_7 cell_5_8 cell_5_9 cell_6_7 cell_6_8 cell_6_9) true))
(assert
 (and (distinct cell_7_1 cell_7_2 cell_7_3 cell_8_1 cell_8_2 cell_8_3 cell_9_1 cell_9_2 cell_9_3) true))
(assert
 (and (distinct cell_7_4 cell_7_5 cell_7_6 cell_8_4 cell_8_5 cell_8_6 cell_9_4 cell_9_5 cell_9_6) true))
(assert
 (and (distinct cell_7_7 cell_7_8 cell_7_9 cell_8_7 cell_8_8 cell_8_9 cell_9_7 cell_9_8 cell_9_9) true))
(assert
 (let (($x1486 (and (distinct cell_5_9 cell_6_8 cell_7_7 cell_8_6) true)))
 (let (($x780 (and (distinct cell_2_9 cell_3_8 cell_4_7 cell_5_6 cell_6_5 cell_7_4 cell_8_3 cell_9_2) true)))
 (let (($x2160 (and (distinct cell_1_8 cell_2_7 cell_3_6 cell_4_5 cell_5_4 cell_6_3 cell_7_2 cell_8_1) true)))
 (let (($x2928 (and (distinct cell_1_5 cell_2_4 cell_3_3 cell_4_2) true)))
 (let (($x3149 (and (distinct cell_5_1 cell_6_2 cell_7_3 cell_8_4) true)))
 (let (($x1062 (and (distinct cell_2_1 cell_3_2 cell_4_3 cell_5_4 cell_6_5 cell_7_6 cell_8_7 cell_9_8) true)))
 (let (($x1842 (and (distinct cell_1_2 cell_2_3 cell_3_4 cell_4_5 cell_5_6 cell_6_7 cell_7_8 cell_8_9) true)))
 (let (($x460 (and (distinct cell_1_5 cell_2_6 cell_3_7 cell_4_8) true)))
 (and $x460 $x1842 $x1062 $x3149 $x2928 $x2160 $x780 $x1486))))))))))
(assert
 (= cell_5_6 2))
(check-sat)
